30
1 0 4
2 0 4
2 1 1
3 0 3
3 1 3
3 2 6
4 0 7
4 1 8
4 2 7
4 3 9
5 0 5
5 1 3
5 2 1
5 3 1
5 4 4
6 0 4
6 1 6
6 2 3
6 3 5
6 4 5
6 5 6
7 0 7
7 1 2
7 2 3
7 3 6
7 4 6
7 5 5
7 6 3
8 0 6
8 1 7
8 2 1
8 3 5
8 4 4
8 5 2
8 6 9
8 7 4
9 0 3
9 1 2
9 2 2
9 3 9
9 4 9
9 5 9
9 6 4
9 7 3
9 8 9
10 0 4
10 1 6
10 2 3
10 3 2
10 4 6
10 5 3
10 6 7
10 7 6
10 8 8
10 9 5
11 0 7
11 1 6
11 2 6
11 3 2
11 4 9
11 5 9
11 6 1
11 7 2
11 8 9
11 9 7
11 10 8
12 0 5
12 1 4
12 2 6
12 3 8
12 4 3
12 5 8
12 6 1
12 7 2
12 8 7
12 9 4
12 10 4
12 11 2
13 0 7
13 1 1
13 2 8
13 3 1
13 4 8
13 5 4
13 6 3
13 7 4
13 8 5
13 9 6
13 10 7
13 11 3
13 12 2
14 0 1
14 1 6
14 2 7
14 3 9
14 4 2
14 5 4
14 6 8
14 7 4
14 8 6
14 9 6
14 10 7
14 11 5
14 12 1
14 13 7
15 0 3
15 1 4
15 2 7
15 3 8
15 4 7
15 5 9
15 6 6
15 7 7
15 8 3
15 9 2
15 10 5
15 11 4
15 12 2
15 13 4
15 14 5
16 0 4
16 1 8
16 2 8
16 3 7
16 4 2
16 5 1
16 6 8
16 7 5
16 8 1
16 9 1
16 10 1
16 11 4
16 12 3
16 13 9
16 14 6
16 15 7
17 0 9
17 1 6
17 2 2
17 3 5
17 4 5
17 5 9
17 6 7
17 7 8
17 8 4
17 9 9
17 10 5
17 11 7
17 12 3
17 13 3
17 14 6
17 15 5
17 16 5
18 0 7
18 1 7
18 2 3
18 3 5
18 4 3
18 5 7
18 6 3
18 7 1
18 8 1
18 9 1
18 10 7
18 11 4
18 12 8
18 13 8
18 14 2
18 15 9
18 16 3
18 17 9
19 0 4
19 1 3
19 2 4
19 3 7
19 4 3
19 5 7
19 6 1
19 7 3
19 8 3
19 9 5
19 10 7
19 11 7
19 12 9
19 13 4
19 14 5
19 15 1
19 16 6
19 17 1
19 18 2
20 0 8
20 1 8
20 2 3
20 3 4
20 4 7
20 5 3
20 6 6
20 7 1
20 8 5
20 9 4
20 10 9
20 11 1
20 12 9
20 13 2
20 14 2
20 15 3
20 16 3
20 17 9
20 18 8
20 19 2
21 0 9
21 1 4
21 2 2
21 3 2
21 4 9
21 5 7
21 6 6
21 7 7
21 8 6
21 9 4
21 10 8
21 11 2
21 12 8
21 13 8
21 14 6
21 15 4
21 16 4
21 17 5
21 18 6
21 19 6
21 20 9
22 0 3
22 1 2
22 2 3
22 3 3
22 4 6
22 5 4
22 6 5
22 7 3
22 8 7
22 9 6
22 10 4
22 11 1
22 12 7
22 13 7
22 14 2
22 15 4
22 16 5
22 17 8
22 18 9
22 19 4
22 20 7
22 21 2
23 0 9
23 1 3
23 2 2
23 3 6
23 4 2
23 5 9
23 6 2
23 7 2
23 8 8
23 9 7
23 10 2
23 11 6
23 12 4
23 13 6
23 14 8
23 15 2
23 16 9
23 17 7
23 18 7
23 19 3
23 20 9
23 21 2
23 22 3
24 0 2
24 1 7
24 2 9
24 3 4
24 4 8
24 5 7
24 6 7
24 7 4
24 8 5
24 9 7
24 10 1
24 11 7
24 12 7
24 13 3
24 14 9
24 15 8
24 16 6
24 17 7
24 18 2
24 19 3
24 20 3
24 21 5
24 22 1
24 23 4
25 0 6
25 1 3
25 2 2
25 3 3
25 4 6
25 5 3
25 6 2
25 7 6
25 8 4
25 9 6
25 10 9
25 11 3
25 12 4
25 13 4
25 14 9
25 15 1
25 16 5
25 17 1
25 18 6
25 19 6
25 20 6
25 21 9
25 22 3
25 23 1
25 24 4
26 0 8
26 1 3
26 2 7
26 3 5
26 4 9
26 5 9
26 6 2
26 7 8
26 8 8
26 9 2
26 10 5
26 11 2
26 12 3
26 13 4
26 14 7
26 15 6
26 16 8
26 17 5
26 18 2
26 19 1
26 20 6
26 21 7
26 22 3
26 23 8
26 24 3
26 25 6
27 0 4
27 1 8
27 2 6
27 3 4
27 4 8
27 5 4
27 6 2
27 7 1
27 8 7
27 9 4
27 10 8
27 11 9
27 12 3
27 13 5
27 14 7
27 15 2
27 16 2
27 17 7
27 18 4
27 19 1
27 20 4
27 21 2
27 22 9
27 23 9
27 24 8
27 25 4
27 26 2
28 0 5
28 1 4
28 2 4
28 3 3
28 4 3
28 5 7
28 6 9
28 7 3
28 8 2
28 9 2
28 10 1
28 11 7
28 12 9
28 13 9
28 14 7
28 15 8
28 16 1
28 17 9
28 18 2
28 19 5
28 20 1
28 21 2
28 22 8
28 23 2
28 24 4
28 25 9
28 26 1
28 27 6
29 0 8
29 1 5
29 2 5
29 3 8
29 4 6
29 5 9
29 6 4
29 7 7
29 8 8
29 9 9
29 10 2
29 11 8
29 12 6
29 13 3
29 14 4
29 15 2
29 16 8
29 17 2
29 18 4
29 19 1
29 20 2
29 21 6
29 22 8
29 23 2
29 24 1
29 25 8
29 26 3
29 27 5
29 28 8
